50, 12719
623, 722
742, 841
796, 898
943, 1043
740, 839
923, 1023
30, 131
466, 564
944, 1046
649, 747
901, 1002
114, 216
470, 568
247, 348
544, 643
574, 674
14, 112
217, 315
280, 378
917, 1019
766, 864
160, 261
798, 900
139, 241
618, 717
127, 226
2, 102
872, 973
210, 308
216, 317
983, 1084
873, 975
290, 388
962, 1064
540, 638
678, 777
205, 306
941, 1043
691, 790
967, 1069
894, 994
299, 398
362, 461
166, 264
146, 244
66, 164
302, 403
604, 706
4, 102
678, 776
